
Gurobi 6.0.4 (win64) logging started 06/20/15 12:11:24

Read LP format model from file C:\MT\repository\VRPTWMS\instances\mip\fuel\N8-C_DV100-C_SV30_F6_8_No_1.lp
Reading time = 0.01 seconds
(null): 417 rows, 200 columns, 1659 nonzeros
Optimize a model with 417 rows, 200 columns and 1659 nonzeros
Model has 512 quadratic constraints
Coefficient statistics:
  Matrix range    [1e+00, 1e+06]
  Objective range [1e+04, 1e+07]
  Bounds range    [1e+00, 1e+06]
  RHS range       [1e+00, 1e+06]
Presolve removed 51 rows and 27 columns
Presolve time: 0.31s
Presolved: 1192 rows, 585 columns, 6207 nonzeros
Variable types: 412 continuous, 173 integer (139 binary)
Found heuristic solution: objective 8.389860e+07

Root relaxation: objective 1.150719e+07, 100 iterations, 0.00 seconds

    Nodes    |    Current Node    |     Objective Bounds      |     Work
 Expl Unexpl |  Obj  Depth IntInf | Incumbent    BestBd   Gap | It/Node Time

     0     0 1.1507e+07    0   35 8.3899e+07 1.1507e+07  86.3%     -    0s
H    0     0                    4.274070e+07 1.1507e+07  73.1%     -    0s
     0     0 1.6710e+07    0   37 4.2741e+07 1.6710e+07  60.9%     -    0s
H    0     0                    4.232830e+07 1.6710e+07  60.5%     -    0s
H    0     0                    4.224870e+07 1.6710e+07  60.4%     -    0s
H    0     0                    3.180270e+07 1.6710e+07  47.5%     -    0s
     0     0 2.1417e+07    0   30 3.1803e+07 2.1417e+07  32.7%     -    0s
     0     0 2.1489e+07    0   20 3.1803e+07 2.1489e+07  32.4%     -    0s
     0     0 2.1489e+07    0   19 3.1803e+07 2.1489e+07  32.4%     -    0s
     0     0 2.1489e+07    0   19 3.1803e+07 2.1489e+07  32.4%     -    0s
     0     2 2.1489e+07    0   19 3.1803e+07 2.1489e+07  32.4%     -    0s
H   93     0                    3.179350e+07 2.1563e+07  32.2%   5.6    0s
H  123     0                    3.178130e+07 2.1649e+07  31.9%   5.9    0s
H  231     5                    3.176360e+07 2.1748e+07  31.5%   5.7    0s

Cutting planes:
  Learned: 2
  Gomory: 2
  Cover: 11
  Implied bound: 26
  Clique: 7
  MIR: 6
  GUB cover: 3

Explored 274 nodes (1800 simplex iterations) in 0.53 seconds
Thread count was 2 (of 4 available processors)

Optimal solution found (tolerance 1.00e-04)
Best objective 3.176360000000e+07, best bound 3.176360000000e+07, gap 0.0%
k_c1	1000000.0
k_c2	40000.0
k_c3	910000.0
k_c4	160000.0
k_c5	1000000.0
k_c6	969999.0
k_c7	980000.0
k_c8	110000.0
k_dN	-0.0
o_1	-0.0
o_2	-0.0
o_3	-0.0
o_4	-0.0
o_5	-0.0
o_6	-0.0
o_7	-0.0
o_8	-0.0
p_1	-0.0
p_2	-0.0
p_3	-0.0
p_4	-0.0
p_5	-0.0
p_6	-0.0
p_7	-0.0
p_8	-0.0
phi_c1	44379.0
phi_c2	16183.0
phi_c3	30628.0
phi_c4	13729.0
phi_c5	45329.0
phi_c6	44386.0
phi_c7	40150.0
phi_c8	46204.0
phi_d0	60000.0
phi_dN	-0.0
tauD_c1	108175.0
tauD_c2	600000.0
tauD_c3	446024.0
tauD_c4	800000.0
tauD_c5	100000.0
tauD_c6	718498.0
tauD_c7	200000.0
tauD_c8	850000.0
tauD_d0	-0.0
tauD_dN	1000000.0
tauS_c1	861625.0
tauS_c2	859525.0
tauS_c3	834675.0
tauS_c4	868700.0
tauS_c5	865175.0
tauS_c6	861850.0
tauS_c7	852675.0
tauS_c8	868450.0
tauS_d0	-0.0
tauS_dN	1000000.0
x_c1_c7	1.0
x_c2_dN	1.0
x_c3_c2	1.0
x_c4_dN	1.0
x_c5_c6	1.0
x_c6_c4	1.0
x_c7_c3	1.0
x_c8_dN	1.0
x_d0_c1	1.0
x_d0_c5	1.0
x_d0_c8	1.0
